
  12   12
  10   10   10   10   10   10   10   10   10   10   10   10

   0   0   0   0   0   0   0   0   0   0   0   0   0   4 2 3 4 7 
   6   0   0   0   0   1   0   0   0   0   0   1   5   3 9 6 5 
   7   0   0   0   0   9   0   1   1   1   1   0   0   3 11 9 8 
   2   0   0   1   1   0   1   8   5   0   0   0   0   2 9 8 
   7   0   0   7   0   0   0   0   9   0   0   0   0   1 10 
   2   1   0   0   0   0   0   0   0   0   9   0   0   1 8 
   4   0   0   0   6   0   0   0   7   9   0   0   0   1 10 
  10   7   0   0   9   2   0   0   0   0   0   4   0   1 12
   6   0   0   0   4   0   9   0   0   0   0   0   0   1 12
   6   0   1   0   0   8   0   6   0   0   0   8   0   1 12
   3   7   9   7   0   0   0   0   3   0   0   7   0   1 12
   0   0   0   0   0   0   0   0   0   0   0   0   0   0 
